id: 1235
name: ns1905797
group: miplib2010
method: 2

Gurobi 7.0.2 (linux64, Matlab) logging started Mon Mar 26 10:16:56 2018


Gurobi 7.0.2 (linux64) logging started Mon Mar 26 10:16:56 2018

Optimize a model with 51884 rows, 18192 columns and 239700 nonzeros
Coefficient statistics:
  Matrix range     [2e-01, 5e+01]
  Objective range  [3e-04, 7e+00]
  Bounds range     [1e+00, 3e+02]
  RHS range        [1e+00, 1e+02]
Presolve removed 8 rows and 4 columns
Presolve time: 0.06s
Presolved: 51876 rows, 18188 columns, 239156 nonzeros

Ordering time: 1.12s

Barrier statistics:
 Dense cols : 512
 AA' NZ     : 1.584e+06
 Factor NZ  : 2.933e+07 (roughly 260 MBytes of memory)
 Factor Ops : 5.824e+10 (roughly 1 second per iteration)
 Threads    : 4

                  Objective                Residual
Iter       Primal          Dual         Primal    Dual     Compl     Time
   0   3.13161331e+04 -1.32911830e+04  1.56e+03 1.60e+00  1.50e+01     2s
   1   4.36309011e+03 -9.88780757e+04  2.10e+02 2.54e-01  2.79e+00     3s
   2   6.18797206e+02 -3.57183579e+04  2.21e+01 1.86e-02  5.08e-01     3s
   3   5.64649352e+01 -8.69297102e+02  7.46e-02 1.05e-04  1.08e-02     4s
   4   3.11889184e+01 -4.62803507e+01  1.33e-03 2.96e-14  8.87e-04     5s
   5   1.78044339e+01 -1.62895642e+00  6.30e-05 1.33e-14  2.22e-04     5s
   6   1.38883316e+01  8.32112588e+00  1.93e-05 4.35e-14  6.36e-05     6s
   7   1.18765507e+01  1.13662553e+01  3.90e-07 4.27e-14  5.82e-06     7s
   8   1.17761884e+01  1.15999113e+01  6.71e-08 1.73e-13  2.01e-06     8s
   9   1.17523520e+01  1.17481977e+01  6.79e-09 1.61e-13  4.74e-08     9s
  10   1.17512128e+01  1.17509545e+01  6.39e-08 4.01e-13  2.96e-09     9s
  11   1.17510862e+01  1.17509795e+01  4.13e-07 6.66e-13  1.22e-09    10s
  12   1.17509810e+01  1.17509800e+01  2.76e-07 6.25e-13  1.16e-11    11s
  13   1.17509800e+01  1.17509800e+01  2.46e-07 3.41e-13  4.59e-15    11s

Barrier solved model in 13 iterations and 11.37 seconds
Optimal objective 1.17509800e+01

Crossover log...

      43 DPushes remaining with DInf 0.0000000e+00                11s
       0 DPushes remaining with DInf 2.8588243e-15                11s

    2831 PPushes remaining with PInf 0.0000000e+00                11s
       0 PPushes remaining with PInf 0.0000000e+00                11s

  Push phase complete: Pinf 0.0000000e+00, Dinf 3.7365944e-15     11s

Iteration    Objective       Primal Inf.    Dual Inf.      Time
    2877    1.1750980e+01   0.000000e+00   0.000000e+00     11s
    2877    1.1750980e+01   0.000000e+00   0.000000e+00     12s

Solved in 2877 iterations and 11.51 seconds
Optimal objective  1.175098000e+01
status: OPTIMAL
